73 23 15 30 30 20 30 30 40 30 30 40 20 40 40 40 40 30 200 200 200 200 200 200 200 200
2.00 3.00 3.00 4.00 5.00 5.00 7.00 7.00 10.00 10.00 26.00 24.00 28.00 27.00 30.00 27.00 30.00 32.00 23.00 21.00 23.00 21.00 26.00 25.00 23.00 27.00 25.00 30.00 28.00 48.00 44.00 46.00 43.00 51.00 46.00 51.00 53.00 50.00 39.00 37.00 37.00 35.00 40.00 40.00 39.00 36.00 41.00 37.00 40.00 18.00 16.00 19.00 45.00 13.00 3.00 80.00 16.00 15.00 72.00 48.00 69.00 72.00 72.00 71.00 23.00
5.00 3.00 5.00 5.00 6.00 7.00 7.00 10.00 10.00 25.00 23.00 27.00 26.00 29.00 27.00 30.00 31.00 25.00 23.00 24.00 22.00 28.00 26.00 25.00 28.00 26.00 32.00 29.00 49.00 46.00 47.00 44.00 53.00 47.00 52.00 54.00 51.00 41.00 39.00 39.00 37.00 42.00 42.00 40.00 38.00 43.00 38.00 42.00 20.00 14.00 21.00 45.00 11.00 5.00 82.00 18.00 13.00 74.00 49.00 71.00 74.00 74.00 73.00 25.00
2.00 1.00 3.00 2.00 4.00 5.00 7.00 7.00 25.00 21.00 27.00 26.00 29.00 25.00 28.00 30.00 20.00 18.00 19.00 17.00 23.00 22.00 20.00 23.00 21.00 27.00 24.00 44.00 41.00 42.00 39.00 48.00 42.00 47.00 49.00 46.00 36.00 34.00 35.00 32.00 37.00 37.00 36.00 33.00 38.00 34.00 37.00 16.00 18.00 17.00 42.00 15.00 3.00 77.00 14.00 17.00 69.00 45.00 66.00 69.00 69.00 68.00 21.00
3.00 2.00 2.00 4.00 4.00 7.00 7.00 24.00 21.00 26.00 25.00 27.00 25.00 27.00 29.00 21.00 20.00 21.00 19.00 24.00 23.00 21.00 24.00 23.00 28.00 25.00 45.00 42.00 44.00 41.00 49.00 43.00 48.00 50.00 47.00 38.00 36.00 37.00 34.00 39.00 39.00 37.00 35.00 40.00 35.00 39.00 18.00 16.00 19.00 42.00 13.00 4.00 78.00 16.00 15.00 71.00 46.00 68.00 71.00 71.00 70.00 23.00
4.00 2.00 5.00 6.00 7.00 8.00 26.00 22.00 28.00 26.00 29.00 26.00 28.00 30.00 19.00 17.00 19.00 17.00 22.00 21.00 19.00 23.00 21.00 26.00 24.00 43.00 40.00 42.00 39.00 47.00 42.00 47.00 48.00 46.00 35.00 33.00 34.00 31.00 36.00 37.00 35.00 32.00 37.00 33.00 36.00 15.00 19.00 16.00 42.00 16.00 3.00 76.00 13.00 18.00 68.00 44.00 65.00 68.00 68.00 68.00 20.00
3.00 2.00 2.00 5.00 5.00 21.00 18.00 24.00 22.00 25.00 22.00 25.00 27.00 21.00 19.00 20.00 18.00 24.00 22.00 20.00 24.00 22.00 27.00 24.00 45.00 41.00 43.00 40.00 48.00 42.00 47.00 49.00 46.00 39.00 37.00 37.00 34.00 39.00 40.00 38.00 35.00 40.00 36.00 39.00 19.00 15.00 20.00 40.00 13.00 6.00 78.00 17.00 14.00 71.00 44.00 69.00 72.00 72.00 71.00 24.00
2.00 4.00 5.00 5.00 24.00 20.00 26.00 24.00 27.00 23.00 26.00 28.00 18.00 17.00 18.00 16.00 21.00 20.00 18.00 22.00 20.00 25.00 22.00 43.00 39.00 41.00 38.00 46.00 40.00 46.00 47.00 45.00 36.00 34.00 34.00 31.00 36.00 37.00 35.00 32.00 37.00 33.00 36.00 16.00 18.00 17.00 40.00 15.00 5.00 76.00 14.00 17.00 68.00 43.00 66.00 69.00 69.00 68.00 21.00
2.00 3.00 3.00 21.00 17.00 23.00 21.00 24.00 21.00 24.00 25.00 19.00 17.00 18.00 16.00 22.00 20.00 18.00 21.00 19.00 25.00 22.00 43.00 39.00 41.00 37.00 46.00 40.00 45.00 47.00 44.00 38.00 36.00 36.00 33.00 38.00 38.00 36.00 33.00 39.00 34.00 37.00 18.00 17.00 20.00 38.00 14.00 7.00 76.00 17.00 16.00 70.00 42.00 68.00 70.00 70.00 69.00 24.00
5.00 3.00 19.00 16.00 21.00 20.00 23.00 20.00 23.00 25.00 21.00 19.00 20.00 18.00 23.00 22.00 19.00 23.00 21.00 26.00 23.00 44.00 41.00 42.00 39.00 48.00 41.00 46.00 48.00 45.00 40.00 38.00 38.00 35.00 40.00 40.00 38.00 35.00 41.00 36.00 39.00 20.00 15.00 22.00 38.00 13.00 8.00 78.00 19.00 14.00 72.00 43.00 70.00 72.00 72.00 71.00 25.00
3.00 21.00 15.00 23.00 20.00 24.00 19.00 21.00 24.00 16.00 14.00 15.00 13.00 18.00 17.00 14.00 18.00 16.00 21.00 18.00 39.00 36.00 37.00 34.00 43.00 36.00 42.00 43.00 40.00 36.00 34.00 34.00 31.00 36.00 36.00 34.00 31.00 36.00 31.00 35.00 16.00 20.00 19.00 35.00 18.00 10.00 73.00 17.00 19.00 67.00 38.00 66.00 67.00 67.00 67.00 23.00
18.00 14.00 20.00 18.00 21.00 18.00 20.00 22.00 19.00 17.00 18.00 15.00 21.00 19.00 17.00 20.00 18.00 24.00 20.00 42.00 38.00 39.00 36.00 45.00 38.00 43.00 45.00 42.00 39.00 37.00 37.00 34.00 39.00 39.00 37.00 34.00 39.00 34.00 38.00 19.00 18.00 22.00 35.00 15.00 10.00 76.00 19.00 17.00 70.00 40.00 69.00 70.00 70.00 70.00 26.00
10.00 3.00 7.00 5.00 12.00 14.00 11.00 35.00 33.00 33.00 30.00 35.00 33.00 30.00 33.00 30.00 35.00 30.00 52.00 47.00 48.00 43.00 53.00 44.00 50.00 51.00 47.00 55.00 53.00 53.00 50.00 55.00 55.00 53.00 50.00 55.00 50.00 53.00 38.00 20.00 41.00 32.00 20.00 28.00 88.00 38.00 20.00 85.00 43.00 85.00 85.00 85.00 85.00 44.00
10.00 5.00 10.00 4.00 7.00 8.00 26.00 24.00 23.00 20.00 25.00 23.00 20.00 23.00 20.00 25.00 20.00 41.00 37.00 37.00 33.00 43.00 34.00 40.00 41.00 37.00 46.00 44.00 44.00 41.00 46.00 45.00 43.00 40.00 45.00 40.00 43.00 30.00 24.00 34.00 24.00 23.00 25.00 77.00 32.00 24.00 75.00 34.00 75.00 75.00 75.00 75.00 37.00
5.00 2.00 10.00 12.00 8.00 35.00 33.00 33.00 30.00 35.00 33.00 30.00 33.00 30.00 35.00 30.00 51.00 46.00 47.00 42.00 52.00 43.00 49.00 50.00 45.00 56.00 54.00 54.00 51.00 55.00 55.00 53.00 50.00 55.00 50.00 53.00 39.00 23.00 42.00 29.00 23.00 30.00 87.00 40.00 23.00 85.00 42.00 85.00 85.00 85.00 85.00 46.00
5.00 5.00 7.00 5.00 31.00 29.00 29.00 26.00 30.00 28.00 25.00 28.00 25.00 30.00 25.00 46.00 41.00 41.00 37.00 47.00 38.00 43.00 44.00 40.00 52.00 50.00 49.00 46.00 51.00 50.00 49.00 46.00 50.00 45.00 48.00 36.00 25.00 39.00 25.00 25.00 29.00 82.00 37.00 25.00 80.00 36.00 81.00 80.00 80.00 80.00 43.00
10.00 11.00 7.00 36.00 34.00 33.00 31.00 35.00 33.00 30.00 33.00 30.00 35.00 30.00 50.00 46.00 46.00 41.00 52.00 42.00 48.00 49.00 44.00 57.00 55.00 54.00 51.00 56.00 55.00 53.00 50.00 55.00 50.00 53.00 40.00 25.00 43.00 28.00 25.00 32.00 86.00 41.00 25.00 85.00 41.00 85.00 85.00 85.00 85.00 47.00
3.00 5.00 27.00 25.00 25.00 22.00 25.00 24.00 21.00 23.00 20.00 25.00 20.00 40.00 35.00 36.00 31.00 42.00 32.00 38.00 39.00 34.00 48.00 46.00 45.00 42.00 47.00 46.00 44.00 41.00 46.00 41.00 43.00 33.00 28.00 37.00 20.00 27.00 28.00 76.00 35.00 28.00 75.00 31.00 76.00 75.00 75.00 75.00 40.00
5.00 29.00 27.00 26.00 23.00 26.00 25.00 22.00 24.00 21.00 25.00 20.00 40.00 35.00 35.00 30.00 41.00 31.00 37.00 38.00 33.00 49.00 47.00 46.00 43.00 48.00 47.00 45.00 42.00 46.00 42.00 44.00 35.00 31.00 39.00 18.00 30.00 31.00 76.00 37.00 31.00 75.00 30.00 77.00 75.00 75.00 75.00 42.00
33.00 31.00 30.00 28.00 31.00 29.00 26.00 29.00 26.00 30.00 25.00 45.00 40.00 40.00 35.00 46.00 36.00 42.00 42.00 38.00 53.00 52.00 51.00 48.00 52.00 52.00 50.00 47.00 51.00 46.00 49.00 39.00 30.00 43.00 21.00 30.00 33.00 81.00 41.00 30.00 80.00 34.00 82.00 80.00 80.00 80.00 46.00
2.00 2.00 5.00 5.00 5.00 7.00 7.00 8.00 10.00 11.00 25.00 22.00 24.00 22.00 29.00 25.00 29.00 31.00 30.00 20.00 18.00 18.00 15.00 20.00 20.00 18.00 15.00 20.00 15.00 18.00 10.00 37.00 15.00 33.00 34.00 21.00 57.00 15.00 36.00 50.00 30.00 50.00 51.00 51.00 50.00 15.00
2.00 3.00 5.00 5.00 5.00 7.00 7.00 10.00 10.00 26.00 23.00 25.00 23.00 30.00 25.00 30.00 32.00 30.00 22.00 20.00 20.00 17.00 22.00 22.00 20.00 17.00 22.00 17.00 20.00 10.00 35.00 15.00 32.00 32.00 19.00 59.00 15.00 34.00 52.00 30.00 52.00 53.00 53.00 52.00 16.00
3.00 3.00 3.00 4.00 5.00 5.00 8.00 8.00 24.00 21.00 23.00 21.00 28.00 24.00 28.00 30.00 28.00 23.00 21.00 20.00 17.00 22.00 22.00 20.00 17.00 22.00 17.00 20.00 12.00 36.00 17.00 30.00 33.00 21.00 58.00 17.00 35.00 52.00 28.00 52.00 52.00 52.00 52.00 18.00
5.00 4.00 3.00 5.00 5.00 9.00 8.00 26.00 23.00 25.00 22.00 30.00 25.00 30.00 31.00 29.00 25.00 24.00 23.00 20.00 25.00 25.00 23.00 20.00 25.00 20.00 23.00 13.00 33.00 18.00 29.00 31.00 19.00 60.00 17.00 32.00 55.00 28.00 55.00 55.00 55.00 55.00 19.00
2.00 5.00 2.00 5.00 5.00 7.00 21.00 18.00 19.00 17.00 25.00 20.00 25.00 26.00 25.00 22.00 20.00 19.00 17.00 21.00 20.00 18.00 15.00 20.00 15.00 18.00 15.00 39.00 20.00 29.00 36.00 25.00 55.00 20.00 38.00 50.00 25.00 50.00 50.00 50.00 50.00 20.00
3.00 2.00 3.00 5.00 5.00 22.00 19.00 20.00 18.00 26.00 21.00 25.00 27.00 25.00 24.00 22.00 21.00 18.00 23.00 22.00 20.00 17.00 22.00 17.00 20.00 15.00 37.00 20.00 28.00 35.00 23.00 56.00 20.00 36.00 52.00 25.00 52.00 52.00 52.00 52.00 21.00
3.00 2.00 7.00 5.00 25.00 21.00 22.00 19.00 28.00 22.00 27.00 29.00 26.00 26.00 25.00 24.00 21.00 25.00 25.00 23.00 20.00 25.00 20.00 23.00 15.00 35.00 20.00 26.00 32.00 22.00 59.00 20.00 34.00 55.00 25.00 55.00 55.00 55.00 55.00 22.00
3.00 3.00 4.00 21.00 17.00 19.00 16.00 24.00 19.00 24.00 25.00 24.00 25.00 23.00 22.00 19.00 23.00 23.00 21.00 18.00 22.00 17.00 20.00 17.00 38.00 22.00 26.00 36.00 25.00 56.00 22.00 38.00 52.00 23.00 52.00 52.00 52.00 52.00 23.00
5.00 3.00 23.00 19.00 21.00 18.00 26.00 20.00 25.00 27.00 25.00 27.00 25.00 25.00 22.00 26.00 25.00 24.00 21.00 25.00 20.00 23.00 17.00 36.00 22.00 25.00 34.00 24.00 58.00 22.00 35.00 55.00 23.00 55.00 55.00 55.00 55.00 24.00
5.00 18.00 14.00 15.00 13.00 21.00 15.00 20.00 22.00 20.00 25.00 23.00 22.00 19.00 23.00 22.00 20.00 18.00 21.00 17.00 18.00 20.00 42.00 25.00 25.00 39.00 29.00 53.00 25.00 41.00 50.00 20.00 51.00 50.00 50.00 50.00 25.00
22.00 18.00 19.00 15.00 25.00 18.00 23.00 25.00 22.00 29.00 27.00 26.00 23.00 27.00 26.00 25.00 22.00 26.00 21.00 23.00 20.00 38.00 25.00 22.00 36.00 26.00 57.00 25.00 37.00 55.00 20.00 56.00 55.00 55.00 55.00 26.00
5.00 5.00 10.00 5.00 11.00 9.00 11.00 14.00 25.00 25.00 23.00 23.00 22.00 20.00 20.00 20.00 18.00 18.00 16.00 33.00 60.00 37.00 31.00 57.00 46.00 35.00 38.00 59.00 36.00 17.00 41.00 36.00 36.00 37.00 36.00
2.00 5.00 7.00 7.00 8.00 10.00 11.00 26.00 26.00 24.00 23.00 24.00 22.00 21.00 20.00 20.00 18.00 17.00 31.00 56.00 36.00 26.00 53.00 43.00 40.00 37.00 55.00 41.00 13.00 46.00 41.00 41.00 41.00 35.00
5.00 5.00 5.00 6.00 8.00 9.00 28.00 28.00 26.00 25.00 26.00 24.00 23.00 22.00 22.00 20.00 19.00 33.00 57.00 38.00 26.00 55.00 44.00 40.00 38.00 56.00 42.00 12.00 47.00 41.00 41.00 42.00 37.00
10.00 3.00 7.00 9.00 8.00 30.00 29.00 28.00 26.00 28.00 26.00 25.00 24.00 25.00 22.00 22.00 32.00 53.00 37.00 21.00 51.00 42.00 45.00 37.00 53.00 46.00 8.00 51.00 46.00 46.00 47.00 37.00
10.00 5.00 7.00 11.00 30.00 30.00 28.00 28.00 27.00 25.00 25.00 25.00 23.00 23.00 21.00 38.00 63.00 42.00 30.00 60.00 50.00 35.00 43.00 62.00 38.00 14.00 44.00 37.00 37.00 38.00 41.00
5.00 7.00 5.00 33.00 32.00 30.00 29.00 30.00 29.00 28.00 26.00 27.00 25.00 24.00 35.00 55.00 40.00 20.00 53.00 44.00 45.00 40.00 55.00 47.00 6.00 53.00 47.00 47.00 48.00 40.00
2.00 5.00 34.00 33.00 32.00 31.00 31.00 29.00 29.00 28.00 27.00 26.00 25.00 39.00 61.00 43.00 25.00 59.00 49.00 40.00 44.00 60.00 44.00 9.00 50.00 43.00 43.00 44.00 43.00
5.00 36.00 35.00 33.00 33.00 33.00 31.00 31.00 30.00 29.00 28.00 27.00 41.00 62.00 45.00 25.00 60.00 51.00 40.00 46.00 62.00 45.00 9.00 51.00 44.00 44.00 45.00 45.00
38.00 37.00 35.00 34.00 35.00 33.00 32.00 31.00 31.00 29.00 29.00 40.00 59.00 45.00 20.00 57.00 49.00 45.00 45.00 58.00 49.00 4.00 55.00 48.00 48.00 50.00 45.00
2.00 2.00 5.00 3.00 5.00 5.00 7.00 7.00 8.00 9.00 20.00 54.00 21.00 49.00 51.00 36.00 44.00 24.00 53.00 33.00 39.00 30.00 34.00 34.00 32.00 18.00
2.00 3.00 3.00 5.00 5.00 5.00 7.00 7.00 9.00 18.00 52.00 19.00 48.00 50.00 34.00 45.00 22.00 51.00 34.00 38.00 32.00 35.00 35.00 34.00 16.00
3.00 2.00 3.00 3.00 4.00 5.00 5.00 7.00 19.00 53.00 20.00 46.00 50.00 35.00 44.00 23.00 52.00 34.00 37.00 32.00 34.00 34.00 33.00 17.00
5.00 5.00 4.00 3.00 7.00 5.00 7.00 16.00 50.00 18.00 44.00 47.00 32.00 46.00 20.00 49.00 37.00 35.00 35.00 37.00 37.00 36.00 15.00
2.00 2.00 5.00 4.00 6.00 6.00 21.00 55.00 23.00 47.00 52.00 37.00 42.00 25.00 54.00 31.00 37.00 30.00 32.00 32.00 31.00 19.00
2.00 5.00 2.00 5.00 4.00 22.00 56.00 24.00 46.00 53.00 38.00 41.00 26.00 55.00 31.00 35.00 30.00 31.00 31.00 31.00 21.00
3.00 2.00 3.00 4.00 20.00 54.00 22.00 44.00 51.00 36.00 42.00 25.00 53.00 33.00 34.00 32.00 33.00 33.00 32.00 19.00
5.00 2.00 5.00 18.00 51.00 20.00 42.00 48.00 33.00 44.00 22.00 50.00 36.00 33.00 35.00 36.00 36.00 35.00 18.00
5.00 2.00 23.00 56.00 25.00 44.00 53.00 38.00 39.00 27.00 55.00 30.00 33.00 30.00 31.00 31.00 30.00 22.00
3.00 19.00 51.00 22.00 41.00 49.00 34.00 43.00 24.00 50.00 35.00 31.00 35.00 36.00 36.00 35.00 19.00
22.00 55.00 25.00 42.00 52.00 38.00 40.00 27.00 54.00 32.00 31.00 32.00 32.00 32.00 32.00 23.00
78 140
499 553
863 931
584 656
950 1026
683 741
774 836
1057 1125
958 1040
779 845
869 941
176 228
1042 1106
263 327
745 789
358 416
633 711
557 601
455 513
10 70
11 73
73 131
13 70
72 138
158 232
672 744
263 311
438 510
174 226
355 407
467 517
271 337
355 437
194 244
655 725
278 346
569 619
472 532
374 440
143 199
49 109
239 289
789 849
325 387
421 475
601 665
698 754
511 569
1011 1073
923 975
0 1236
0 1236
0 1236
0 1236
0 1236
0 1236
0 1236
0 1236
0 1236
0 1236
0 1236
0 1236
0 1236
0 1236
0 1236
0 1236
0 1236
0 1236
0 1236
0 1236
0 1236
0 1236
0 1236
34.00 5.00 42.00 31.00 15.00 62.00 5.00 33.00 53.00 40.00 50.00 54.00 54.00 53.00 7.00 0 0 0 0 0 0 0 0
10 30 10 10 10 20 20 20 10 10 10 20 30 10 40 40 20 20 10 10 20 20 10 10 40 10 10 20 10 10 20 30 40 20 10 10 20 30 20 10 10 20 10 10 10 30 10 10 10 10